50
120
100
98
98
98
91
90
90
88
87
87
87
86
86
83
82
81
80
80
76
73
72
71
71
70
69
68
68
67
67
66
65
64
60
54
53
52
52
47
46
46
46
41
40
37
37
36
36
35
34
33
